NAME : ch130.opt.tour
COMMENT : Tour result for ch130.tsp (6146)
TYPE : TOUR
DIMENSION : 130
TOUR_SECTION
18
8
108
114
3
83
117
39
71
41
1
130
50
2
118
80
46
20
35
54
4
93
44
42
51
60
55
122
40
47
37
22
23
96
13
67
14
10
102
6
91
72
120
53
49
58
106
38
92
73
99
74
75
52
65
56
9
57
82
101
123
111
119
84
36
32
113
25
48
68
98
110
89
94
77
103
81
87
12
79
95
29
15
24
116
100
19
27
31
17
34
127
107
104
43
63
70
97
7
26
88
86
69
64
124
129
61
109
76
11
5
45
16
128
105
112
62
115
28
66
85
125
90
78
121
59
30
126
33
21
-1
EOF